ass02/p2/ass02-p2.lp
\ File: ass02-p2.lp
\
\ Assignment 2
\ Problem 2
\
\ Authors: Dana Cyr
\          Jake Raynor
\          Adam Bowker
\          Brayden Golas
\

Maximize
  3 x2 - x1
Subject To
  x1 - x2 <= 4
  x1 + 2 x2 >= 4
  x1 >= 0
  x2 >= 0
End